37
 energy: -73.371692080108 gnorm: 0.000491148365 xtb: 6.6.1 (8d0f1dd)
C           -4.54090638367701       -3.75312503885105        0.14014396100422
C           -3.73741351801106       -2.50591702830368        0.26421297880235
N           -2.48273664483750       -2.54410308758134       -0.15260391611311
N           -1.72718914196469       -1.48899430516222       -0.07600675231322
C           -2.23101239545952       -0.37168192729448        0.42265319218447
C           -1.36897563785525        0.81297970008615        0.49196851754257
C           -1.84383165950278        2.03416523533639        0.98024797610424
N           -1.05932019347891        3.09607493937650        1.04256557936196
C            0.18892117266316        2.97068065957770        0.62538033361830
C            0.67986812902137        1.75371381371644        0.12721783589708
C            2.04837741271099        1.54646445176250       -0.35319509375618
C            2.39843254753911        0.30764972652026       -0.82536205335477
C            3.68747236491854        0.00756688790706       -1.30337711723447
C            4.61067520451120        1.00986639008312       -1.28117528158356
O            5.92178747182061        0.94027302745321       -1.69025061655224
C            6.46395585131707       -0.27931810353939       -1.94810734898955
F            6.03031634694468       -0.77993969858079       -3.12627159777791
F            7.78250981617823       -0.11029678696426       -2.06669260153091
N            4.28144830794698        2.23301085763697       -0.82342062589904
C            3.02267442947739        2.62135400421666       -0.34025367995259
O            2.88514186257254        3.76900329257344        0.02914254635410
N           -0.11848919845679        0.68799521596865        0.07280792803535
N           -3.48591230625346       -0.24303111233430        0.87535723346932
C           -4.25831661516721       -1.30802736200683        0.80570249027491
C           -5.65605021259930       -1.19333500293642        1.30638801615981
H           -4.86370409617940       -4.09357418747305        1.12326635391921
H           -5.43009632597771       -3.57330827800166       -0.46240531775782
H           -3.93573117651245       -4.52461681231464       -0.32708341329513
H           -2.86222314090517        2.14761040371808        1.32098816020671
H            0.81032450929429        3.85074610676780        0.68749046906133
H            1.63945660206256       -0.46040650053568       -0.82466264201669
H            3.90846298117745       -0.97116102354447       -1.69020952641091
H            6.26648556035770       -1.03804167781171       -1.16690209276120
H            4.99236724246820        2.95690474844337       -0.83488995669100
H           -5.83814725429820       -1.93082296980272        2.08655400163984
H           -6.35984888086299       -1.38111467694023        0.49655306114745
H           -5.81877403098243       -0.19524288116459        1.70260899920547
