28

C     -4.697949    1.410789   -1.119923
C     -3.381755    0.910642   -0.620471
N     -2.281346    1.297630   -1.296271
N     -1.058173    0.866361   -0.877642
C     -0.977500    0.062355    0.203203
C      0.348821   -0.382574    0.626343
C      0.552238   -1.206599    1.717612
S      2.222146   -1.522597    1.918750
C      2.574498   -0.545341    0.543525
C      3.923089   -0.329422    0.066180
C      5.113015   -0.824554    0.576268
C      6.256861   -0.396206   -0.161670
C      5.912049    0.415181   -1.216688
S      4.224288    0.656037   -1.313448
N      1.517371   -0.012905   -0.035196
N     -2.045533   -0.356055    0.917264
C     -3.252503    0.082307    0.486764
C     -4.444704   -0.375997    1.271866
H     -5.198023    2.006923   -0.350534
H     -4.563685    2.046458   -2.001460
H     -5.342142    0.573755   -1.405919
H     -0.183610   -1.627054    2.389072
H      5.175977   -1.469859    1.444147
H      7.278501   -0.670520    0.071465
H      6.568560    0.880901   -1.938893
H     -5.123274   -0.952209    0.635467
H     -4.138105   -1.019241    2.103470
H     -4.979111    0.481792    1.691502
