50

C     -4.625426    2.932641    0.908075
C     -3.983604    1.734541    0.288049
N     -4.752383    0.637457    0.138013
N     -4.209819   -0.478814   -0.419566
C     -2.910156   -0.472968   -0.795862
C     -2.361616   -1.701010   -1.393868
C     -3.210607   -2.535882   -2.158267
C     -2.755909   -3.724413   -2.733165
C     -1.436864   -4.115852   -2.553061
C     -0.578819   -3.317357   -1.799741
C     -1.015146   -2.106926   -1.223468
N     -0.103488   -1.379845   -0.416086
C      0.603249   -1.824445    0.734583
C      0.253593   -3.043955    1.351541
C      0.959788   -3.543106    2.446255
C      2.044307   -2.838687    2.943651
C      2.415724   -1.635294    2.344361
C      1.713783   -1.097510    1.237988
C      2.183948    0.170471    0.654577
N      1.273136    1.034280    0.155632
N      1.690424    2.222010   -0.367143
C      3.005801    2.512579   -0.373981
C      3.411480    3.820730   -0.969902
C      3.909109    1.609855    0.165835
C      5.382962    1.880297    0.185076
N      3.509136    0.431143    0.696542
N     -2.103104    0.600095   -0.671935
C     -2.664153    1.713075   -0.140942
C     -1.770485    2.909254   -0.014907
H     -4.057358    3.263165    1.783435
H     -4.686070    3.750674    0.184228
H     -5.643279    2.701180    1.238960
H     -4.252619   -2.254231   -2.311414
H     -3.434735   -4.340490   -3.316831
H     -1.072516   -5.039644   -2.994035
H      0.454494   -3.631166   -1.665076
H     -0.327989   -0.377543   -0.372061
H     -0.598445   -3.616098    0.991621
H      0.658364   -4.481717    2.903658
H      2.603868   -3.220727    3.792975
H      3.275652   -1.101047    2.748016
H      2.541243    4.353558   -1.368879
H      4.114378    3.665479   -1.794620
H      3.877309    4.457654   -0.211676
H      5.768622    1.963832   -0.835480
H      5.596306    2.804152    0.732013
H      5.920625    1.066250    0.682975
H     -0.909513    2.812646   -0.681739
H     -2.292469    3.826673   -0.303445
H     -1.410729    3.005034    1.013685
