48

C     -5.352482    3.546199   -1.305474
C     -4.614391    2.253907   -1.177579
N     -5.315650    1.120918   -1.384052
N     -4.679748   -0.080045   -1.277029
C     -3.360775   -0.118209   -0.966760
C     -2.714457   -1.448649   -0.861923
C     -3.420709   -2.628320   -1.071316
C     -2.759399   -3.845745   -0.958840
C     -1.399155   -3.876309   -0.638437
C     -0.734909   -5.100787   -0.525502
C      0.614355   -5.129014   -0.207598
C      1.307126   -3.932925   -0.000813
C      2.667416   -3.959274    0.319770
C      3.357084   -2.770110    0.525570
C      2.678980   -1.561478    0.408764
C      3.356320   -0.258725    0.615727
N      4.675469   -0.275756    0.927142
N      5.339342    0.898016    1.126307
C      4.665185    2.059785    1.008538
C      5.433336    3.320566    1.235535
C      3.316128    2.040819    0.688735
C      2.515016    3.298796    0.544410
N      2.648698    0.883061    0.489315
N      1.352882   -1.539273    0.096120
C      0.653956   -2.684283   -0.110273
C     -0.716883   -2.655604   -0.433246
N     -1.388483   -1.481923   -0.549735
N     -2.626533    0.993406   -0.753267
C     -3.266368    2.178510   -0.861787
C     -2.435937    3.402350   -0.621562
H     -4.914371    4.160733   -2.097842
H     -6.403039    3.370741   -1.559923
H     -5.324591    4.098331   -0.361115
H     -4.477938   -2.611861   -1.320598
H     -3.316635   -4.765016   -1.123636
H     -1.262232   -6.039118   -0.683905
H      1.119304   -6.088940   -0.122785
H      3.202714   -4.901400    0.412402
H      4.414174   -2.797880    0.774434
H      6.479178    3.101258    1.474945
H      5.419532    3.944605    0.336746
H      5.008894    3.882100    2.073367
H      2.514343    3.861473    1.482971
H      2.925594    3.924076   -0.254311
H      1.474433    3.070826    0.289860
H     -2.421437    4.035773   -1.513781
H     -1.401176    3.130942   -0.386673
H     -2.832158    3.973455    0.223622
