50

C      6.222814   -1.640816   -2.881944
C      5.325809   -0.926475   -1.924329
N      4.219917   -0.346361   -2.433371
N      3.372145    0.311820   -1.596187
C      3.657805    0.368484   -0.278092
C      2.737956    1.081904    0.606578
S      1.262208    1.736763    0.001929
C      0.851888    2.305619    1.565442
C     -0.431785    3.047687    1.795954
O     -1.395315    2.152265    2.355935
C     -2.249985    1.473024    1.538121
C     -3.015604    0.504628    2.186689
C     -3.940390   -0.278882    1.485378
C     -4.130856   -0.114134    0.106575
C     -5.132072   -0.955275   -0.703133
C     -6.183335   -0.028741   -1.351298
C     -4.384560   -1.728662   -1.810946
C     -5.899689   -1.996679    0.142324
C     -3.355182    0.872816   -0.530425
C     -2.429679    1.657785    0.172876
N      1.754616    2.073245    2.494679
C      2.825119    1.363348    1.965871
C      3.926072    0.995448    2.898482
N      4.747908   -0.187764    0.281948
C      5.580783   -0.841101   -0.562268
C      6.794633   -1.467587    0.055243
H      7.223464   -1.197669   -2.873258
H      6.293395   -2.701404   -2.621454
H      5.835106   -1.571443   -3.903842
H     -0.792416    3.591303    0.917817
H     -0.245422    3.814729    2.557492
H     -2.888926    0.349620    3.256105
H     -4.498528   -1.017068    2.053924
H     -5.734012    0.677234   -2.058324
H     -6.930665   -0.606957   -1.907243
H     -6.713219    0.558491   -0.591896
H     -3.607318   -2.374554   -1.385403
H     -3.898637   -1.058774   -2.528751
H     -5.071554   -2.364820   -2.381281
H     -6.598994   -2.570688   -0.477455
H     -5.218833   -2.716948    0.610778
H     -6.488889   -1.518899    0.933722
H     -3.459672    1.048574   -1.599485
H     -1.877893    2.398038   -0.393805
H      4.021483   -0.092039    2.973846
H      4.877873    1.416243    2.559988
H      3.729910    1.383241    3.903486
H      6.815811   -1.290420    1.135780
H      6.790826   -2.549787   -0.106837
H      7.705887   -1.038361   -0.372303
