42

C      7.514990    0.216621    1.729450
C      6.141635    0.047617    1.165466
N      5.106525    0.182320    2.021166
N      3.837752    0.033364    1.553922
C      3.652930   -0.245304    0.246691
C      2.293120   -0.399236   -0.240896
C      1.751747   -0.679079   -1.481829
C      0.345439   -0.698747   -1.321384
C      0.100434   -0.427333    0.008982
C     -1.130168   -0.310463    0.836055
O     -2.223282   -0.097240   -0.055110
C     -3.477367    0.041578    0.492201
C     -3.749779   -0.051538    1.861536
C     -5.053771    0.095787    2.331696
C     -6.096389    0.337087    1.440420
C     -5.853008    0.437552    0.063740
C     -6.907989    0.684965   -0.831455
C     -6.675434    0.789291   -2.202774
C     -5.384945    0.648261   -2.697263
C     -4.326985    0.401203   -1.819464
C     -4.531762    0.289832   -0.425819
O      1.282000   -0.249372    0.670079
N      4.643756   -0.397075   -0.654346
C      5.899290   -0.247977   -0.170873
C      7.015744   -0.414152   -1.157580
H      8.076570   -0.720186    1.656450
H      7.468643    0.499296    2.786953
H      8.055273    1.006226    1.197891
H      2.315843   -0.847066   -2.388720
H     -0.404595   -0.885153   -2.077706
H     -1.266823   -1.242479    1.396441
H     -1.028150    0.539965    1.520224
H     -2.971714   -0.239458    2.593907
H     -5.259187    0.019982    3.397007
H     -7.105811    0.448129    1.830929
H     -7.925607    0.799774   -0.464051
H     -7.501559    0.981214   -2.881767
H     -5.196310    0.729520   -3.764211
H     -3.325122    0.296464   -2.231225
H      6.623486   -0.664705   -2.148980
H      7.587346    0.514876   -1.247714
H      7.683234   -1.224359   -0.848088
