42

C     -7.001097   -0.218438    0.551231
C     -5.614579   -0.440161    0.005907
C     -5.376739   -1.542168   -0.828072
C     -4.101166   -1.782913   -1.343995
C     -3.042336   -0.923999   -1.050552
O     -1.850131   -1.285985   -1.610598
C     -0.781178   -0.336874   -1.636615
C      0.143732   -0.606280   -0.503794
C      0.031975   -1.273682    0.698827
C      1.299191   -1.192057    1.323937
C      2.125048   -0.488811    0.465697
C      3.532700   -0.124939    0.504468
N      4.231190   -0.533375    1.586351
N      5.562641   -0.271143    1.646338
C      6.149025    0.381608    0.619864
C      7.624357    0.613436    0.714379
C      5.385090    0.784225   -0.469232
C      5.992429    1.500948   -1.638106
N      4.057516    0.542210   -0.539359
O      1.407732   -0.106658   -0.636724
C     -3.264433    0.169932   -0.212145
C     -4.544541    0.421169    0.325525
C     -4.745705    1.615830    1.217725
H     -7.701629   -0.979888    0.189898
H     -6.994692   -0.274472    1.645504
H     -7.388765    0.759166    0.239111
H     -6.184750   -2.227663   -1.081045
H     -3.934648   -2.647569   -1.982267
H     -1.119864    0.704309   -1.663213
H     -0.242534   -0.510937   -2.575691
H     -0.853180   -1.773597    1.067100
H      1.593611   -1.619146    2.273470
H      7.854418    1.682517    0.660609
H      8.138222    0.087322   -0.096707
H      8.020301    0.232438    1.663885
H      6.746583    0.870357   -2.121011
H      6.451298    2.440557   -1.315122
H      5.228960    1.742321   -2.385521
H     -2.451333    0.837660    0.061084
H     -3.792107    2.082333    1.488438
H     -5.356247    2.367898    0.705985
H     -5.234363    1.324517    2.149713
