40

C     -5.654922    0.685523   -2.019500
O     -4.390580    0.781065   -1.374942
C     -4.102564   -0.199101   -0.461861
C     -4.694124   -1.466353   -0.453104
C     -4.351530   -2.401861    0.526738
C     -3.420933   -2.078433    1.508401
C     -2.815867   -0.825348    1.499822
C     -3.134602    0.098432    0.504822
O     -2.488389    1.308450    0.572907
C     -1.698345    1.565355   -0.589708
C     -0.379157    2.040182   -0.102999
C      0.056480    3.219887    0.458075
C      1.436173    3.049472    0.716218
C      1.769176    1.773744    0.302417
C      3.001251    1.003678    0.316277
N      4.093050    1.615531    0.831019
N      5.265044    0.929169    0.887304
C      5.301645   -0.343595    0.436403
C      6.613100   -1.053276    0.516599
C      4.155849   -0.923436   -0.091781
C      4.141373   -2.334171   -0.600523
N      2.981794   -0.254012   -0.158763
O      0.658068    1.161615   -0.207230
H     -5.652600   -0.116566   -2.763227
H     -5.834405    1.626995   -2.547257
H     -6.466067    0.551316   -1.295645
H     -5.409647   -1.762712   -1.207749
H     -4.811539   -3.386581    0.521665
H     -3.157242   -2.803548    2.274193
H     -2.083225   -0.567954    2.257129
H     -2.181928    2.356133   -1.174332
H     -1.563993    0.682451   -1.231627
H     -0.551980    4.087935    0.665871
H      2.113242    3.761712    1.161886
H      6.508136   -2.004818    1.047008
H      7.345504   -0.450194    1.061981
H      7.006650   -1.238969   -0.487675
H      3.164535   -2.585497   -1.024168
H      4.343397   -3.034324    0.215132
H      4.889173   -2.467897   -1.387523
