41

C      5.315428   -3.320919   -0.018199
O      5.345139   -1.929508    0.275878
C      4.202545   -1.220697    0.030655
C      3.019023   -1.728579   -0.495055
C      1.926831   -0.878964   -0.713924
C      1.980709    0.495996   -0.412972
C      0.810382    1.346103   -0.695954
C      0.894593    2.622825   -1.244433
N     -0.188820    3.392174   -1.506986
C     -1.384644    2.827383   -1.204038
C     -1.518113    1.548417   -0.669268
C     -2.835586    0.963090   -0.362445
N     -3.932140    1.724852   -0.584564
N     -5.169285    1.222884   -0.314277
C     -5.277799   -0.029666    0.172737
C     -6.654853   -0.534457    0.456873
C     -4.133309   -0.783438    0.386051
C     -4.193583   -2.180419    0.925748
N     -2.899419   -0.297219    0.118722
N     -0.402597    0.798097   -0.417884
C      3.170546    0.976471    0.165259
O      3.276380    2.303050    0.499455
C      3.312076    2.494252    1.913125
F      4.513475    2.141065    2.416619
F      3.120855    3.807195    2.169904
F      2.338324    1.797309    2.534542
C      4.275210    0.134655    0.353828
H      5.148676   -3.494729   -1.086384
H      4.564272   -3.836788    0.589041
H      6.294238   -3.737617    0.238114
H      2.907006   -2.776324   -0.754195
H      1.013426   -1.301964   -1.133651
H      1.846606    3.071553   -1.508637
H     -2.247182    3.452899   -1.415851
H     -7.405347    0.225502    0.215197
H     -6.869911   -1.421204   -0.147152
H     -6.760224   -0.783610    1.517176
H     -4.766300   -2.825956    0.252865
H     -3.188190   -2.603998    1.021249
H     -4.655515   -2.187506    1.917747
H      5.207077    0.527791    0.754480
