38

C     -7.268142   -0.722447   -0.194825
C     -5.846911   -0.269247   -0.107524
N     -5.633545    1.050661    0.081980
N     -4.356415    1.507739    0.166459
C     -3.338858    0.625903    0.058451
C     -1.994334    1.169243    0.154429
C     -1.491948    2.443688    0.341893
C     -0.080748    2.332387    0.344956
C      0.206608    0.996151    0.158126
C      1.459688    0.201906    0.064005
O      2.554977    1.118356    0.083493
C      3.812618    0.588497    0.002878
C      4.128840   -0.768837   -0.093091
C      5.466152   -1.177186   -0.169020
C      6.488270   -0.219419   -0.148167
N      7.890404   -0.647178   -0.227828
O      8.117755   -1.862610   -0.313559
O      8.764041    0.231547   -0.204640
C      6.180825    1.141686   -0.052403
C      4.842491    1.536072    0.022628
O     -0.953456    0.285708    0.043735
N     -3.488515   -0.698438   -0.130136
C     -4.765878   -1.136333   -0.212164
C     -4.951110   -2.608609   -0.424554
H     -7.491049   -1.439100    0.601410
H     -7.953885    0.124164   -0.084939
H     -7.462862   -1.187152   -1.166129
H     -2.082134    3.342330    0.461129
H      0.644000    3.125987    0.466712
H      1.455239   -0.364785   -0.874486
H      1.516322   -0.477534    0.922572
H      3.362451   -1.537880   -0.111878
H      5.690433   -2.239694   -0.243784
H      6.959442    1.901211   -0.034746
H      4.597912    2.594145    0.097245
H     -5.520350   -3.046104    0.401436
H     -5.474912   -2.795543   -1.367106
H     -3.983419   -3.119284   -0.471619
