36

C      6.342720    0.160324    1.861029
C      4.976980    0.125367    1.256207
N      4.037787    0.911889    1.822635
N      2.774416    0.896700    1.329452
C      2.497826    0.097138    0.278500
C      1.142212    0.084947   -0.239131
C      0.523842   -0.593826   -1.271452
C     -0.829260   -0.177375   -1.283959
C     -0.968904    0.732702   -0.257370
C     -2.101321    1.530447    0.282215
O     -3.123543    1.628806   -0.714815
C     -4.233585    0.843119   -0.567087
C     -5.376966    1.308036   -1.226804
C     -6.572724    0.594340   -1.160543
C     -6.617758   -0.590110   -0.437529
F     -7.764749   -1.275224   -0.359231
C     -5.484930   -1.077944    0.203968
C     -4.285806   -0.364285    0.132721
O      0.226277    0.891835    0.380241
N      3.386622   -0.717254   -0.325358
C      4.637207   -0.696364    0.191220
C      5.637408   -1.604144   -0.459712
H      7.112853    0.249200    1.086835
H      6.518915   -0.751546    2.443755
H      6.448368    1.022199    2.528398
H      1.003991   -1.301415   -1.933302
H     -1.611521   -0.496422   -1.959038
H     -1.757417    2.552550    0.483819
H     -2.462885    1.132192    1.236676
H     -5.334990    2.240833   -1.786647
H     -7.461529    0.956867   -1.661927
H     -5.539944   -2.012080    0.753632
H     -3.409762   -0.783798    0.621135
H      6.110378   -2.250314    0.286146
H      5.152901   -2.253882   -1.197993
H      6.406890   -1.013510   -0.972947
