42

C      6.681591    2.372765   -0.466169
C      5.697074    1.267825   -0.223934
C      6.135838    0.001006    0.176249
C      5.218164   -1.026395    0.430126
C      5.699852   -2.373796    0.884095
C      3.843857   -0.767003    0.314580
C      3.391995    0.496497   -0.070845
O      2.085494    0.875143   -0.220315
C      1.092044   -0.120125    0.023701
C     -0.236791    0.502873   -0.218385
C     -0.658430    1.731182   -0.684380
C     -2.073313    1.695538   -0.686360
C     -2.443221    0.447031   -0.222331
C     -3.725327   -0.197629    0.002874
N     -3.733702   -1.456717    0.487877
N     -4.928727   -2.070162    0.702968
C     -6.068892   -1.403412    0.424955
C     -7.354784   -2.121653    0.675953
C     -6.007061   -0.108077   -0.075176
C     -7.245042    0.672537   -0.400352
N     -4.827649    0.519058   -0.293869
O     -1.319139   -0.280647    0.063086
C      4.321955    1.506086   -0.334632
H      7.618133    1.978634   -0.874974
H      6.895992    2.894583    0.471995
H      6.290256    3.094899   -1.190309
H      7.201705   -0.187957    0.290774
H      6.674034   -2.608808    0.442840
H      5.790960   -2.390563    1.974380
H      5.006094   -3.162315    0.574933
H      3.149896   -1.571611    0.536586
H      1.218548   -0.964024   -0.664526
H      1.143310   -0.461575    1.064280
H     -0.016417    2.547930   -0.985733
H     -2.753625    2.479629   -0.989418
H     -7.169379   -3.119619    1.087865
H     -7.913930   -2.242148   -0.257057
H     -7.966524   -1.571074    1.397165
H     -7.833796    0.155369   -1.164472
H     -7.855373    0.812339    0.497241
H     -6.988530    1.663508   -0.789585
H      3.962864    2.490875   -0.626220
