35

C     -6.381138   -0.446293    1.603637
C     -5.047568   -0.230351    0.965655
N     -3.994289   -0.054365    1.788833
N     -2.757356    0.142993    1.251977
C     -2.616298    0.158554   -0.090733
C     -1.275913    0.376033   -0.632465
C     -1.015289    0.442642   -1.989379
S      0.652933    0.716264   -2.264978
C      0.927274    0.701392   -0.565132
C      2.308594    0.907947   -0.015107
O      3.112944   -0.189037   -0.447115
C      4.449244   -0.153990   -0.146511
C      5.041240    0.759200    0.733393
C      6.416986    0.711810    0.984419
C      7.213520   -0.247667    0.363801
C      6.635506   -1.166317   -0.509633
C      5.261271   -1.121296   -0.761870
Cl     4.601818   -2.284248   -1.859928
N     -0.151144    0.539905    0.175203
N     -3.636316   -0.007092   -0.960984
C     -4.857346   -0.204629   -0.409880
C     -5.995422   -0.394692   -1.367154
H     -6.790617   -1.419184    1.315163
H     -7.079180    0.343008    1.308426
H     -6.297734   -0.428473    2.695393
H     -1.709656    0.348780   -2.812767
H      2.711321    1.859292   -0.383786
H      2.254225    0.924892    1.079793
H      4.462910    1.516975    1.252157
H      6.866531    1.425252    1.671844
H      8.281861   -0.282591    0.562508
H      7.257627   -1.916207   -0.991307
H     -6.747270    0.388097   -1.227729
H     -5.644475   -0.341464   -2.403171
H     -6.458795   -1.375143   -1.220609
