35

C      6.471976    0.081988   -1.040019
C      5.051031    0.376255   -0.683608
N      4.792546    1.581681   -0.131621
N      3.513494    1.891543    0.208228
C      2.539822    0.982499   -0.017269
C      1.191209    1.366277    0.365149
C      0.650617    2.504085    0.934538
C     -0.740182    2.274043    1.064251
C     -0.982705    1.007008    0.568030
C     -2.185012    0.204047    0.424699
N     -2.077869   -1.027871   -0.113836
N     -3.199888   -1.785171   -0.250938
C     -4.385082   -1.283339    0.154802
C     -5.586656   -2.154539   -0.017476
C     -4.443179   -0.007927    0.703698
C     -5.735563    0.592790    1.168786
N     -3.337951    0.760160    0.848122
O      0.194333    0.454077    0.142108
N      2.736723   -0.230764   -0.562524
C      4.014044   -0.524049   -0.895066
C      4.248107   -1.873506   -1.503982
H      6.832319   -0.791301   -0.487814
H      7.119530    0.928319   -0.787863
H      6.566791   -0.103535   -2.114262
H      1.202460    3.389919    1.219063
H     -1.486934    2.943474    1.469208
H     -6.051604   -2.361538    0.951225
H     -5.310563   -3.113622   -0.468180
H     -6.317166   -1.673682   -0.675154
H     -5.574399    1.599650    1.568246
H     -6.441878    0.671855    0.336715
H     -6.176161   -0.016314    1.963985
H      4.932141   -2.459808   -0.882836
H      3.309130   -2.431050   -1.586499
H      4.666520   -1.771651   -2.509981
