37

C     -6.504988    0.060050    0.566992
C     -5.082814    0.349070    0.212976
N     -4.856174    1.358811   -0.651514
N     -3.572861    1.655863   -1.001350
C     -2.550101    0.936966   -0.478819
C     -1.170902    1.296215   -0.888335
C     -0.914609    2.337609   -1.781960
C      0.397827    2.633459   -2.133069
C      1.433426    1.884397   -1.585980
C      1.141017    0.850139   -0.695495
C      2.208045    0.022660   -0.085058
N      1.856854   -0.963722    0.770124
N      2.823643   -1.738432    1.344226
C      4.115664   -1.504785    1.046736
C      5.134442   -2.379565    1.700799
C      4.440997   -0.484371    0.165025
C      5.863066   -0.181731   -0.200490
N      3.494450    0.293287   -0.413131
N     -0.147991    0.566269   -0.356284
N     -2.735538   -0.080210    0.388668
C     -4.012339   -0.366039    0.728580
C     -4.203596   -1.497577    1.692398
H     -7.182459    0.744726    0.045979
H     -6.664991    0.184772    1.642297
H     -6.772205   -0.960582    0.276574
H     -1.727144    2.920683   -2.207314
H      0.611681    3.441308   -2.827470
H      2.461734    2.109508   -1.855457
H      5.816134   -1.781638    2.313333
H      5.709347   -2.927089    0.947719
H      4.654017   -3.114729    2.354975
H      6.328776   -1.050019   -0.676610
H      6.435841    0.096613    0.689434
H      5.913179    0.654268   -0.906136
H     -4.804376   -2.290591    1.236653
H     -3.239784   -1.930777    1.980095
H     -4.697267   -1.144816    2.603087
