33

C     -6.275884    0.089616   -0.301678
C     -4.817666    0.414864   -0.285760
N     -4.476388    1.716348   -0.392797
N     -3.159209    2.057379   -0.383498
C     -2.225819    1.085238   -0.266892
C     -0.818911    1.484702   -0.262732
C     -0.407488    2.800728   -0.361786
S      1.301738    2.894363   -0.325867
C      1.394215    1.176511   -0.179909
C      2.706352    0.513577   -0.094232
N      3.625166    1.158275    0.686734
C      4.841296    0.587368    0.842304
C      5.209325   -0.613664    0.258919
C      6.587372   -1.160935    0.466667
F      7.082560   -0.897040    1.706487
F      7.484692   -0.642980   -0.414444
F      6.652425   -2.512337    0.318796
C      4.265058   -1.253535   -0.551472
C      2.996846   -0.693026   -0.732941
Cl     1.905126   -1.519420   -1.782304
N      0.225134    0.565962   -0.159440
N     -2.513285   -0.225932   -0.156250
C     -3.826133   -0.550065   -0.167834
C     -4.150337   -2.008430   -0.046776
H     -6.513413   -0.563257   -1.147107
H     -6.876369    0.999820   -0.402337
H     -6.568558   -0.403039    0.630547
H     -1.011869    3.693101   -0.450936
H      5.528446    1.148024    1.474365
H      4.519399   -2.190891   -1.044714
H     -3.235388   -2.604652    0.035340
H     -4.751940   -2.193363    0.848408
H     -4.696493   -2.353309   -0.930099
