29

C      6.115866   -1.660437   -0.586117
C      5.239335   -0.458091   -0.594663
N      3.940819   -0.483658   -0.387571
C      3.422739    0.802250   -0.462584
C      1.981787    1.019571   -0.262670
N      1.393357    2.223558   -0.316381
O      0.049364    1.931593   -0.069893
C     -0.036013    0.575801    0.108035
C     -1.366005    0.051598    0.380502
N     -1.478018   -1.281122    0.559718
N     -2.705576   -1.812223    0.816975
C     -3.776900   -0.994777    0.886152
C     -5.099732   -1.628567    1.170902
C     -3.613100    0.371233    0.694746
C     -4.770393    1.322294    0.761221
N     -2.400598    0.917141    0.438055
N      1.131721   -0.025863   -0.002325
C      4.352489    1.788478   -0.728579
S      5.912057    1.096387   -0.889439
H      6.882436   -1.577759    0.190838
H      6.608245   -1.790049   -1.555072
H      5.527343   -2.561176   -0.384156
H     -5.797254   -1.445081    0.347984
H     -4.995059   -2.712535    1.285962
H     -5.522013   -1.232602    2.099498
H     -5.238248    1.286692    1.749811
H     -5.513582    1.074157   -0.002699
H     -4.438447    2.350795    0.584341
H      4.193381    2.852393   -0.832980
