36

C     -6.194405    1.402379    2.017931
C     -4.918662    0.848169    1.471921
N     -3.791526    1.550671    1.713000
N     -2.605666    1.083204    1.238125
C     -2.593214   -0.070539    0.538306
C     -1.322344   -0.555375    0.028802
C     -0.956389   -1.652423   -0.728362
C      0.446201   -1.580674   -0.902397
C      0.864674   -0.442612   -0.244773
C      2.185544    0.205645   -0.026853
O      3.097942   -0.356049   -0.969898
C      4.376002    0.131220   -0.959370
C      4.888763    1.078857   -0.071706
C      6.222432    1.487723   -0.175167
C      7.047493    0.952181   -1.162678
C      6.540691    0.006855   -2.050799
C      5.209953   -0.401128   -1.947170
O     -0.207116    0.181590    0.325848
N     -3.682343   -0.817352    0.267833
C     -4.852267   -0.338363    0.751524
C     -6.075264   -1.155371    0.461619
H     -6.616852    0.722919    2.764792
H     -6.921796    1.556131    1.214739
H     -6.022478    2.369776    2.502072
H     -1.631571   -2.408571   -1.105275
H      1.082277   -2.269639   -1.441208
H      2.517664   -0.003830    0.996864
H      2.089718    1.286284   -0.186515
H      4.283791    1.519580    0.713803
H      6.616799    2.227636    0.517053
H      8.083133    1.272468   -1.240037
H      7.178126   -0.413523   -2.823883
H      4.818806   -1.140665   -2.641690
H     -6.573385   -1.443288    1.392860
H     -5.811799   -2.073093   -0.075135
H     -6.772932   -0.589218   -0.164177
