35

C     -6.697746    0.061080    0.882424
C     -5.254576    0.386346    0.672727
N     -4.852851    1.634838    0.991131
N     -3.546438    1.973418    0.817732
C     -2.683695    1.052112    0.330900
C     -1.286476    1.449214    0.155748
C     -0.818656    2.715821    0.457818
S      0.858511    2.829014    0.125800
C      0.860886    1.183917   -0.380652
C      2.127363    0.540687   -0.863365
O      2.988237    0.391376    0.268132
C      4.210881   -0.181700    0.055268
C      4.694909   -0.658298   -1.163261
C      5.972588   -1.221779   -1.228576
Cl     6.564468   -1.806709   -2.736362
C      6.773516   -1.316639   -0.094137
C      6.285040   -0.841203    1.117959
Cl     7.259856   -0.949613    2.531666
C      5.012452   -0.276926    1.196503
N     -0.309861    0.581496   -0.335668
N     -3.033967   -0.204712   -0.004927
C     -4.335176   -0.527259    0.174398
C     -4.729036   -1.925677   -0.194490
H     -7.168735   -0.218997   -0.064748
H     -7.237402    0.926166    1.281904
H     -6.805233   -0.759966    1.597783
H     -1.366697    3.563048    0.847033
H      2.596452    1.171985   -1.627744
H      1.888324   -0.441795   -1.287806
H      4.105787   -0.608577   -2.072920
H      7.765019   -1.756087   -0.154056
H      4.636303    0.091996    2.148191
H     -5.122260   -2.455126    0.678750
H     -5.486140   -1.913895   -0.984520
H     -3.865648   -2.487554   -0.566216
