33

C     -5.616027   -2.175507    0.820293
C     -4.385563   -1.391542    0.498983
N     -3.199882   -2.001441    0.697026
N     -2.049538   -1.324503    0.420440
C     -2.124510   -0.060323   -0.045667
C     -0.873483    0.637325   -0.338060
C     -0.832401    1.918753   -0.855838
S      0.789016    2.421324   -1.074587
C      1.341900    0.903188   -0.464952
C      2.785102    0.636409   -0.343302
C      3.699479    0.958430   -1.343638
C      5.047806    0.658897   -1.145939
C      5.456704    0.048229    0.042769
C      6.882561   -0.323982    0.306660
F      7.151341   -1.616863   -0.020817
F      7.770096    0.431829   -0.398582
F      7.236718   -0.186279    1.614071
C      4.477164   -0.247217    0.978036
N      3.165128    0.035787    0.813362
N      0.378927    0.068663   -0.121312
N     -3.284310    0.597160   -0.267251
C     -4.416613   -0.090008    0.015500
C     -5.708911    0.631926   -0.222214
H     -5.356580   -3.174582    1.186010
H     -6.196781   -1.673984    1.600427
H     -6.236839   -2.296788   -0.072617
H     -1.659597    2.567835   -1.108028
H      3.379861    1.419235   -2.272918
H      5.772752    0.898434   -1.921996
H      4.718292   -0.735842    1.920415
H     -6.313465    0.100067   -0.963240
H     -5.525005    1.642262   -0.602647
H     -6.273345    0.723110    0.710836
