42

C     -7.408089    2.252631    0.197488
C     -6.156062    1.437656    0.227176
N     -4.986648    2.105733    0.136695
N     -3.820690    1.405014    0.154483
C     -3.869614    0.060666    0.262862
C     -2.618369   -0.677427    0.274032
C     -2.305166   -2.020181    0.372357
C     -0.894076   -2.117185    0.320214
C     -0.417950   -0.828765    0.191408
C      0.936418   -0.223800    0.083584
O      1.876186   -1.290707   -0.045009
C      3.191615   -0.945098   -0.192484
C      4.058381   -2.024789   -0.361961
C      5.429549   -1.818581   -0.526184
C      5.959770   -0.521435   -0.522959
C      7.335490   -0.293098   -0.688613
C      7.848403    1.004614   -0.682971
C      6.993359    2.088909   -0.511053
C      5.623313    1.877954   -0.345014
C      5.089090    0.578508   -0.349008
C      3.709121    0.351831   -0.184412
O     -1.463169    0.049445    0.166036
N     -5.003442   -0.661954    0.358508
C     -6.153409    0.052235    0.338401
C     -7.425882   -0.733926    0.439606
H     -8.025140    1.974194   -0.662542
H     -7.982271    2.108004    1.118007
H     -7.176114    3.319564    0.111979
H     -3.019820   -2.825861    0.468654
H     -0.290173   -3.013264    0.367786
H      1.140218    0.355779    0.991228
H      0.970125    0.422908   -0.801025
H      3.663545   -3.037958   -0.368516
H      6.078976   -2.680946   -0.658520
H      8.019167   -1.128135   -0.824468
H      8.915210    1.167323   -0.813264
H      7.391251    3.100210   -0.506548
H      4.973103    2.740037   -0.213029
H      3.060563    1.211873   -0.050058
H     -8.038117   -0.587332   -0.455694
H     -7.994346   -0.429811    1.323662
H     -7.214304   -1.804839    0.529593
