36

C     -6.297624    2.024922   -0.892334
C     -5.004181    1.396927   -0.483652
N     -3.875578    1.919441   -1.007786
N     -2.674408    1.378498   -0.666606
C     -2.648476    0.336769    0.191921
C     -1.360496   -0.236226    0.544184
C     -0.972925   -1.274319    1.371973
C      0.438460   -1.351444    1.299241
C      0.839849   -0.360321    0.426721
C      2.155208    0.105021   -0.087647
O      3.128303   -0.879141    0.264652
C      4.414787   -0.650806   -0.139853
C      4.870405    0.464056   -0.846793
C      6.220809    0.568539   -1.200318
C      7.113401   -0.441217   -0.846065
Br     8.935414   -0.296810   -1.328224
C      6.669303   -1.556854   -0.142370
C      5.321300   -1.657183    0.209868
O     -0.250342    0.322498   -0.030863
N     -3.738240   -0.225144    0.751524
C     -4.924226    0.324138    0.397222
C     -6.148431   -0.290858    1.005016
H     -6.126977    2.835620   -1.608866
H     -6.809635    2.447934   -0.021775
H     -6.947651    1.286983   -1.373002
H     -1.639733   -1.895056    1.955224
H      1.090135   -2.044395    1.814409
H      2.097360    0.210227   -1.177958
H      2.399670    1.066888    0.379170
H      4.206661    1.270362   -1.141156
H      6.563102    1.440572   -1.752256
H      7.358018   -2.350687    0.137500
H      4.973565   -2.528905    0.760072
H     -5.879829   -1.139347    1.642191
H     -6.677691    0.440649    1.624100
H     -6.819307   -0.661334    0.224225
