42

C      6.176052   -1.123224    1.388607
C      5.533628   -0.134072    0.461047
C      6.321033    0.759769   -0.268352
C      5.728496    1.657667   -1.155816
C      4.338417    1.671639   -1.334750
C      3.719898    2.646694   -2.298760
C      3.540041    0.762595   -0.617865
O      2.193419    0.838588   -0.864384
C      1.346471   -0.082086   -0.178399
C     -0.049712    0.185644   -0.615528
C     -0.617656    0.914800   -1.639926
C     -2.018895    0.759241   -1.514030
C     -2.234384   -0.059763   -0.421371
C     -3.429101   -0.587424    0.214515
N     -3.282596   -1.381740    1.295542
N     -4.394157   -1.883387    1.898247
C     -5.608795   -1.575045    1.396327
C     -6.798242   -2.147658    2.096732
C     -5.706833   -0.753608    0.279116
C     -7.032744   -0.383765   -0.314791
N     -4.612280   -0.244531   -0.333089
O     -1.029234   -0.411082    0.125212
C      4.143566   -0.135395    0.270632
H      7.067831   -0.693873    1.858526
H      5.491143   -1.409094    2.194183
H      6.463754   -2.021846    0.834326
H      7.402273    0.762887   -0.150809
H      6.361088    2.346045   -1.711762
H      2.990203    3.279709   -1.783266
H      3.224551    2.109524   -3.114055
H      4.472799    3.306387   -2.742700
H      1.419304    0.068023    0.905441
H      1.608216   -1.113410   -0.443126
H     -0.078938    1.488366   -2.382202
H     -2.790129    1.187655   -2.139483
H     -7.434508   -1.347601    2.486662
H     -7.380506   -2.774740    1.414965
H     -6.488772   -2.770971    2.942115
H     -6.900476    0.274622   -1.180158
H     -7.562666   -1.279059   -0.654282
H     -7.646421    0.147394    0.418932
H      3.554866   -0.853874    0.832999
