37

C     -4.768725   -3.722085   -0.010653
C     -3.919875   -2.505937    0.148785
N     -2.684392   -2.544995   -0.387158
N     -1.862180   -1.464672   -0.253052
C     -2.301955   -0.369450    0.404263
C     -1.405393    0.791704    0.504078
C     -1.818117    1.992412    1.069460
N     -1.017340    3.079820    1.171798
C      0.240608    2.927438    0.680932
C      0.702951    1.744140    0.113629
C      2.080007    1.537134   -0.394703
C      2.545937    0.292554   -0.638642
C      3.886718    0.039541   -1.118413
C      4.727841    1.062390   -1.333093
O      6.018741    1.020123   -1.773696
C      6.641003   -0.252912   -1.840761
F      6.051077   -0.991218   -2.810278
F      7.925981   -0.054357   -2.226977
N      4.286291    2.333432   -1.102277
C      3.027125    2.670948   -0.672947
O      2.718189    3.849534   -0.533628
N     -0.130435    0.668256    0.027886
N     -3.529268   -0.287317    0.967221
C     -4.327291   -1.374491    0.841805
C     -5.688088   -1.272702    1.462880
H     -4.860095   -4.247283    0.946233
H     -5.767275   -3.460132   -0.377471
H     -4.323907   -4.408686   -0.737840
H     -2.821786    2.124815    1.463904
H      0.863101    3.807574    0.796052
H      1.924634   -0.584673   -0.476025
H      4.144147   -0.995567   -1.303866
H      6.633892   -0.782599   -0.880724
H      4.913907    3.101633   -1.298230
H     -5.904591   -2.154828    2.074311
H     -6.450797   -1.172564    0.686636
H     -5.750641   -0.396979    2.118941
