43

C     -9.173208   -0.140573    0.036546
C     -7.811173    0.020610   -0.614851
O     -6.819697   -0.108896    0.402564
C     -5.514057    0.017971    0.018757
C     -5.055429    0.242592   -1.277059
C     -3.682200    0.352670   -1.523450
C     -2.754796    0.239470   -0.485388
O     -1.449419    0.370305   -0.869882
C     -0.460476    0.241013    0.151896
C      0.868992    0.433545   -0.486420
C      1.295214    0.963831   -1.686774
C      2.707242    0.868950   -1.688400
C      3.070632    0.284983   -0.489557
C      4.347092   -0.079584    0.099493
N      4.347907   -0.669583    1.313518
N      5.537021   -1.021230    1.872336
C      6.679146   -0.771076    1.197843
C      7.958806   -1.176207    1.854816
C      6.625367   -0.159661   -0.049451
C      7.866349    0.138806   -0.835887
N      5.451655    0.196881   -0.621943
O      1.945792    0.023078    0.245914
C     -3.213256    0.012579    0.811053
C     -4.586565   -0.096813    1.057002
H     -9.318699    0.615400    0.815650
H     -9.255070   -1.118328    0.524111
H     -9.973543   -0.044328   -0.702565
H     -7.682732   -0.759313   -1.373865
H     -7.752411    1.011551   -1.078525
H     -5.732701    0.334948   -2.119194
H     -3.332443    0.526215   -2.538510
H     -0.597951    1.012326    0.918986
H     -0.507335   -0.758763    0.599331
H      0.658382    1.367058   -2.461921
H      3.389927    1.183407   -2.465882
H      8.590107   -0.300930    2.032925
H      8.500295   -1.893075    1.230413
H      7.765158   -1.654529    2.820956
H      8.401636   -0.786450   -1.069215
H      8.524816    0.807192   -0.272330
H      7.618655    0.631970   -1.781916
H     -2.539439   -0.085148    1.655305
H     -4.937589   -0.272863    2.071303
