48

C      8.423154    1.507617    0.435476
C      7.019064    1.038476    0.223841
N      6.261761    1.744695   -0.640697
N      4.980356    1.349370   -0.872244
C      4.502504    0.265436   -0.225691
C      3.134723   -0.147572   -0.491567
C      2.337867   -1.175572   -0.023163
C      1.080511   -1.047258   -0.663237
C      1.176888    0.053450   -1.490282
C      0.236118    0.728746   -2.421555
O     -0.692488    1.494110   -1.651930
C     -1.865912    0.929137   -1.242034
C     -2.575350    1.692002   -0.315218
C     -3.799741    1.250161    0.201975
C     -4.358670    0.028923   -0.201368
C     -5.702361   -0.490202    0.339538
C     -6.700850   -0.655715   -0.826213
C     -6.361514    0.446313    1.378286
C     -5.493708   -1.857069    1.025905
C     -3.632279   -0.725079   -1.143107
C     -2.403161   -0.283671   -1.657681
O      2.425302    0.597438   -1.393758
N      5.209251   -0.482707    0.643904
C      6.484204   -0.077625    0.858137
C      7.292294   -0.900822    1.819031
H      8.602123    2.449928   -0.096511
H      9.133810    0.766716    0.055649
H      8.615061    1.685744    1.500283
H      2.636767   -1.919012    0.702255
H      0.207264   -1.671886   -0.528851
H     -0.234847    0.030967   -3.119133
H      0.789923    1.443006   -3.042779
H     -2.167667    2.645301    0.017540
H     -4.293126    1.891866    0.926396
H     -6.360961   -1.395845   -1.561136
H     -7.680020   -0.990906   -0.463772
H     -6.847646    0.292730   -1.358230
H     -5.723936    0.583982    2.260309
H     -7.315469    0.034788    1.733023
H     -6.575278    1.435088    0.954012
H     -5.145160   -2.622501    0.325021
H     -6.428736   -2.226092    1.464759
H     -4.753474   -1.785999    1.830968
H     -4.018272   -1.678961   -1.497513
H     -1.910749   -0.916893   -2.384449
H      7.561429   -0.298558    2.693692
H      6.724537   -1.770638    2.166344
H      8.206467   -1.265405    1.336070
