38

C     -6.520173   -1.919203    2.575308
C     -5.161353   -1.566563    2.057883
N     -4.212259   -2.525074    2.135698
N     -2.964379   -2.254007    1.666849
C     -2.710727   -1.034944    1.139406
C     -1.372822   -0.826060    0.612721
C     -0.200157   -1.558000    0.663828
C      0.764364   -0.835909   -0.080224
C      0.136206    0.307702   -0.535143
C      0.569409    1.466072   -1.356308
S      1.784649    2.508054   -0.484773
C      3.323692    1.742761   -0.957095
C      4.509412    2.282896   -0.467712
C      5.722234    1.705024   -0.843096
C      5.726973    0.592289   -1.684720
C      6.998220   -0.052486   -2.144360
F      7.987129   -0.001975   -1.212292
F      6.847452   -1.369060   -2.456074
F      7.506550    0.538718   -3.259830
C      4.496097    0.121606   -2.122451
N      3.305293    0.666582   -1.775315
O     -1.164201    0.314416   -0.117327
N     -3.610702   -0.039088    1.045626
C     -4.846600   -0.320707    1.519886
C     -5.869262    0.768670    1.391785
H     -7.281992   -1.758066    1.803253
H     -6.565539   -2.975015    2.868337
H     -6.757265   -1.316660    3.456421
H     -0.064596   -2.497437    1.185517
H      1.795203   -1.105753   -0.261231
H     -0.297822    2.109172   -1.553953
H      0.933818    1.143028   -2.336775
H      4.498506    3.146089    0.190359
H      6.658915    2.128675   -0.476471
H      4.420199   -0.730737   -2.793543
H     -6.624824    0.488499    0.649488
H     -5.402029    1.705457    1.070702
H     -6.357617    0.951033    2.354414
