31

C      5.113020    1.707667    0.603148
C      3.697980    1.262172    0.426739
N      2.734529    2.060660    0.929035
N      1.430956    1.693781    0.791132
C      1.133561    0.541145    0.155854
C     -0.270960    0.160974    0.015814
S     -1.523796    1.161128    0.647574
C     -2.715807    0.063460    0.090857
C     -4.140097    0.243580    0.268445
C     -5.123800   -0.627894   -0.171516
C     -6.442170   -0.189925    0.146107
C     -6.432590    1.007690    0.822185
S     -4.845697    1.591221    1.067349
N     -2.238723   -0.994269   -0.532145
C     -0.851235   -0.951855   -0.582040
C     -0.158282   -2.083244   -1.258161
N      2.053196   -0.292599   -0.364025
C      3.345581    0.085048   -0.219442
C      4.376003   -0.838622   -0.795976
H      5.156700    2.661463    1.139393
H      5.594305    1.848181   -0.369492
H      5.676775    0.971125    1.183747
H     -4.897922   -1.546237   -0.702353
H     -7.347529   -0.726896   -0.109045
H     -7.281381    1.570795    1.185501
H      0.424849   -1.725297   -2.112177
H      0.507357   -2.601620   -0.561220
H     -0.882398   -2.814269   -1.632684
H      3.900462   -1.708186   -1.261948
H      4.962286   -0.325657   -1.564477
H      5.044826   -1.203520   -0.010494
