41

C     -6.792835    0.228655   -1.236101
C     -5.337778    0.087285   -0.928237
N     -4.836495   -1.164974   -0.889282
N     -3.513981   -1.339060   -0.622661
C     -2.739073   -0.256400   -0.399233
C     -1.317610   -0.495466   -0.111423
S     -0.178603    0.721579   -0.500098
C      1.159783   -0.204292    0.028476
C      2.503456    0.387908   -0.034606
N      2.747293    1.335820   -0.964745
N      3.986071    1.895182   -1.033071
C      4.937506    1.489455   -0.167461
C      6.279866    2.135536   -0.280055
C      4.642148    0.507921    0.769593
C      5.664019    0.020741    1.752114
N      3.416160   -0.059963    0.848975
C      0.754925   -1.457599    0.482033
C      1.696157   -2.523365    0.965103
C     -0.691655   -1.608828    0.444949
C     -1.418883   -2.827262    0.938205
N     -3.187290    1.012748   -0.419963
C     -4.502434    1.171340   -0.693416
C     -5.007448    2.582093   -0.728796
H     -7.262335   -0.753304   -1.355616
H     -7.308896    0.748127   -0.423290
H     -6.933574    0.783880   -2.168403
H      6.281839    2.893956   -1.069765
H      6.547254    2.630046    0.658766
H      7.042901    1.391250   -0.527717
H      5.997186    0.840925    2.395351
H      5.243723   -0.760207    2.394565
H      6.525654   -0.404811    1.228692
H      2.623455   -2.529933    0.383576
H      1.938329   -2.363425    2.020631
H      1.261514   -3.521684    0.858118
H     -0.834431   -3.370341    1.686842
H     -2.362268   -2.556746    1.423226
H     -1.628268   -3.504922    0.104807
H     -4.197563    3.290313   -0.524424
H     -5.416517    2.817574   -1.716133
H     -5.781302    2.730247    0.030652
