35

C     -6.626666    1.028740    1.156444
C     -5.211652    0.690325    0.816745
N     -4.254105    1.522516    1.275319
N     -2.951096    1.253881    0.990386
C     -2.651733    0.162186    0.256726
C     -1.248413   -0.126599   -0.049918
C     -0.728634   -1.182223   -0.779068
C      0.691926   -1.142934   -0.874292
C      1.245457   -0.057715   -0.216985
C      2.659123    0.308846   -0.099026
N      2.993134    1.418235    0.591899
N      4.305762    1.759051    0.701693
C      5.237949    0.978745    0.116959
C      6.664882    1.395502    0.266462
C      4.846142   -0.154363   -0.584463
C      5.842733   -1.053629   -1.251773
N      3.544837   -0.507799   -0.703430
S      0.014078    0.894998    0.505698
N     -3.563910   -0.703837   -0.227638
C     -4.855196   -0.421913    0.064885
C     -5.880971   -1.376680   -0.467477
H     -7.083550    0.223465    1.739716
H     -7.210359    1.192982    0.245551
H     -6.674881    1.944632    1.754780
H     -1.348283   -1.951778   -1.225786
H      1.287851   -1.878902   -1.402459
H      7.238660    0.618929    0.781355
H      6.741973    2.315207    0.855881
H      7.112401    1.587567   -0.713460
H      6.534202   -1.472230   -0.514134
H      6.408161   -0.502432   -2.009364
H      5.339500   -1.888493   -1.750856
H     -6.444090   -1.830139    0.353951
H     -5.403668   -2.184322   -1.032486
H     -6.571565   -0.859817   -1.140832
