41

C      7.803478    0.270407   -0.205798
C      6.324168    0.026922   -0.145081
C      5.422585    1.055813   -0.446538
C      4.037960    0.833135   -0.431128
C      3.524400   -0.426679   -0.112440
O      2.193858   -0.736562   -0.118496
C      1.269869    0.344939    0.013536
C     -0.058891   -0.249816    0.310589
C     -0.473246   -1.431162    0.890350
C     -1.888147   -1.397820    0.897491
C     -2.263906   -0.195307    0.328236
C     -3.548840    0.424744    0.054917
N     -3.562131    1.646166   -0.519170
N     -4.759433    2.237496   -0.777597
C     -5.896901    1.586931   -0.453187
C     -7.185887    2.278558   -0.757787
C     -5.830031    0.330480    0.137111
C     -7.064859   -0.431038    0.514929
N     -4.648143   -0.273166    0.402471
O     -1.143106    0.507030   -0.026869
C      4.436196   -1.450706    0.172026
N      3.957718   -2.778949    0.511618
O      3.190990   -2.885197    1.479545
O      4.395522   -3.722313   -0.163118
C      5.823564   -1.243240    0.152004
H      8.339888   -0.406819    0.467151
H      8.166432    0.114909   -1.226384
H      8.042367    1.293070    0.104644
H      5.794196    2.046091   -0.707587
H      3.391157    1.664664   -0.695991
H      1.221574    0.906850   -0.925930
H      1.554781    1.007099    0.839735
H      0.172920   -2.218154    1.257867
H     -2.564071   -2.154419    1.271816
H     -7.004063    3.254476   -1.219985
H     -7.783902    1.684140   -1.455189
H     -7.757585    2.444425    0.160346
H     -6.804423   -1.394527    0.965676
H     -7.653269    0.132317    1.245599
H     -7.677002   -0.630044   -0.370024
H      6.504213   -2.064743    0.368253
